Instance Name : r201
Date : 2022-07-24
Solution
Route 1 : 95 92 98 61 16 44 38 86 85 99 94 96 97 13 58
Route 2 : 72 39 67 23 75 22 41 56 74 54 55 4 25 24 80 77
Route 3 : 28 33 65 71 29 12 76 51 9 81 79 78 34 50 3 68 26
Route 4 : 52 69 30 90 10 20 66 35 32 70 1
Route 5 : 27 31 63 62 19 11 64 49 46 48
Route 6 : 5 83 45 36 47 82 7 88 18 8 84 6 53
Route 7 : 59 14 42 15 2 73 21 40 87 57 43 37 91 100 93 17 60 89
